163 11 120 126 143 167 137 87 116 64 99 158 4 24 96 100 40 12 188 138 51 18 144 50 198 20 39 23 155 174 98 106 117 68 115 73 181 25 107 101 80 74 17 159 189 141 54 86 164 62 186 53 90 65 44 41 170 30 184 3 83 105 92 79 172 47 142 5 176 37 139 89 122 154 133 191 7 46 121 194 153 108 102 111 166 56 145 113 131 22 32 94 151 124 0 1 71 192 55 93 77 123 190 28 58 66 67 61 60 69 110 130 114 168 178 152 149 165 85 6 82 48 52 193 84 19 118 171 29 195 196 147 197 8 150 135 140 125 127 104 81 103 75 179 57 14 13 26 76 146 175 185 27 160 109 148 38 10 129 63 199 88 128 157 9 177 169 162 95 42 33 59 2 182 35 183 31 112 180 78 45 43 119 156 136 173 132 16 70 34 161 49 21 187 134 36 72 91 97 15 

